NAME: n200q10J.tsp, 200 nodes, semilla 999
COMMENT: Problema aleatorio de norma euclidea
DIMENSION: 200
CAPACITY: 10
EDGE_WEIGHT_TYPE: EUC_2D
NODE_COORD_SECTION
1   0.0000   0.0000
2 -258.0000 -199.0000
3 244.0000 486.0000
4 -59.0000 464.0000
5 -209.0000 245.0000
6 -191.0000 -274.0000
7  68.0000 436.0000
8 490.0000 -252.0000
9 -97.0000  72.0000
10 -32.0000 165.0000
11 -330.0000 146.0000
12 353.0000 302.0000
13 -362.0000 224.0000
14 -270.0000 -430.0000
15 414.0000 421.0000
16 -237.0000 -276.0000
17 106.0000   3.0000
18 360.0000 -189.0000
19 371.0000 269.0000
20 390.0000 421.0000
21 173.0000 -359.0000
22 -149.0000 -267.0000
23 -15.0000 478.0000
24 352.0000  15.0000
25 -444.0000 -29.0000
26 -341.0000 -49.0000
27 440.0000 136.0000
28 480.0000 -228.0000
29 -447.0000 -367.0000
30 -127.0000 -406.0000
31  51.0000 -296.0000
32 -178.0000 120.0000
33 -294.0000 -294.0000
34 -394.0000 -465.0000
35 -247.0000 261.0000
36 254.0000 117.0000
37 -353.0000 -497.0000
38 353.0000  89.0000
39 -169.0000 -69.0000
40 257.0000 -377.0000
41 -272.0000 464.0000
42 116.0000 126.0000
43 220.0000 -141.0000
44 483.0000 425.0000
45 284.0000 -90.0000
46 -352.0000 275.0000
47 -108.0000 -175.0000
48 118.0000 134.0000
49 459.0000 -408.0000
50 -467.0000 453.0000
51 -274.0000 -355.0000
52 173.0000 200.0000
53 198.0000 103.0000
54 395.0000 -272.0000
55 479.0000 -22.0000
56 -422.0000 308.0000
57 185.0000 385.0000
58 100.0000 -188.0000
59 380.0000 -78.0000
60 130.0000 -420.0000
61  40.0000 -359.0000
62 224.0000 107.0000
63 -469.0000 240.0000
64 307.0000  20.0000
65 -257.0000 422.0000
66 143.0000 -372.0000
67 459.0000 -315.0000
68 -419.0000 126.0000
69 -208.0000 -432.0000
70 234.0000 243.0000
71 399.0000 348.0000
72 -50.0000 -386.0000
73 145.0000 -42.0000
74 315.0000 -217.0000
75 119.0000 477.0000
76 -252.0000 -242.0000
77  11.0000  34.0000
78 408.0000 475.0000
79  87.0000 486.0000
80 303.0000  75.0000
81 149.0000 418.0000
82 308.0000 246.0000
83 182.0000 189.0000
84 -68.0000 -218.0000
85 311.0000  25.0000
86 462.0000  42.0000
87 432.0000 -153.0000
88 -437.0000 285.0000
89 -425.0000 333.0000
90 336.0000 -368.0000
91 -227.0000 221.0000
92 -79.0000 -249.0000
93 -161.0000 295.0000
94 417.0000 115.0000
95 -184.0000 338.0000
96  39.0000 259.0000
97 -284.0000 431.0000
98 307.0000 -391.0000
99  32.0000 -490.0000
100 -294.0000 -438.0000
101 -311.0000 461.0000
102 382.0000 189.0000
103 -53.0000  61.0000
104 -135.0000 -432.0000
105 355.0000 -104.0000
106 -389.0000 375.0000
107 206.0000 -71.0000
108 490.0000  87.0000
109 146.0000 -206.0000
110 -430.0000 -349.0000
111 -498.0000 -44.0000
112 -290.0000 -428.0000
113 -298.0000 -462.0000
114 293.0000 142.0000
115 -326.0000 -153.0000
116 -128.0000 -104.0000
117 472.0000  89.0000
118 171.0000 -132.0000
119 -322.0000 -114.0000
120 -439.0000 -320.0000
121 116.0000 -114.0000
122 -235.0000 -156.0000
123 -118.0000 -311.0000
124 -145.0000  29.0000
125   6.0000 291.0000
126 -100.0000  58.0000
127  65.0000 -260.0000
128 -166.0000 -483.0000
129 -190.0000 -19.0000
130 -407.0000 -380.0000
131 370.0000 -360.0000
132 -275.0000 417.0000
133 -278.0000 287.0000
134 412.0000 -154.0000
135 194.0000 -472.0000
136 -85.0000 -355.0000
137 -364.0000 -224.0000
138 -402.0000 -473.0000
139 -367.0000 365.0000
140 -97.0000 347.0000
141 170.0000 -224.0000
142 311.0000 -335.0000
143 489.0000 -293.0000
144 115.0000 -200.0000
145 -272.0000 -73.0000
146 176.0000 477.0000
147 218.0000 178.0000
148  50.0000 493.0000
149 -47.0000 127.0000
150 330.0000 -220.0000
151 -336.0000 277.0000
152 -322.0000 151.0000
153 -254.0000 197.0000
154 245.0000 263.0000
155 -413.0000 134.0000
156 -149.0000 -225.0000
157 -90.0000 403.0000
158 -422.0000 -312.0000
159 -410.0000 -120.0000
160 -110.0000 163.0000
161 360.0000 241.0000
162 186.0000 -41.0000
163 -319.0000  60.0000
164 423.0000  -5.0000
165 -108.0000  71.0000
166 -212.0000 446.0000
167  87.0000 -339.0000
168 395.0000 -75.0000
169 423.0000 477.0000
170 -445.0000 246.0000
171 240.0000 483.0000
172 -133.0000  90.0000
173 409.0000 483.0000
174 421.0000 231.0000
175 -216.0000 -404.0000
176 -89.0000 -217.0000
177 -478.0000 178.0000
178 102.0000 -29.0000
179 -18.0000 -338.0000
180 -93.0000 301.0000
181 -53.0000  49.0000
182  59.0000 -260.0000
183 -242.0000 -178.0000
184 -366.0000 433.0000
185 -143.0000 -432.0000
186 -289.0000 -446.0000
187 384.0000 213.0000
188 446.0000 500.0000
189 -395.0000 -207.0000
190 434.0000 -18.0000
191 -449.0000 -499.0000
192 -207.0000 412.0000
193 -217.0000 458.0000
194 117.0000 -231.0000
195 -213.0000 -327.0000
196 -105.0000 -479.0000
197  46.0000 -84.0000
198 -177.0000 142.0000
199 111.0000 -318.0000
200 -15.0000 105.0000
DISPLAY_DATA_SECTION:
 1  250  250
 2  121  150
 3  372  493
 4  220  482
 5  145  372
 6  154  113
 7  284  468
 8  495  124
 9  201  286
10  234  332
11   85  323
12  426  401
13   69  362
14  115   35
15  457  460
16  131  112
17  303  251
18  430  155
19  435  384
20  445  460
21  336   70
22  175  116
23  242  489
24  426  257
25   28  235
26   79  225
27  470  318
28  490  136
29   26   66
30  186   47
31  275  102
32  161  310
33  103  103
34   53   17
35  126  380
36  377  308
37   73    1
38  426  294
39  165  215
40  378   61
41  114  482
42  308  313
43  360  179
44  491  462
45  392  205
46   74  387
47  196  162
48  309  317
49  479   46
50   16  476
51  113   72
52  336  350
53  349  301
54  447  114
55  489  239
56   39  404
57  342  442
58  300  156
59  440  211
60  315   40
61  270   70
62  362  303
63   15  370
64  403  260
65  121  461
66  321   64
67  479   92
68   40  313
69  146   34
70  367  371
71  449  424
72  225   57
73  322  229
74  407  141
75  309  488
76  124  129
77  255  267
78  454  487
79  293  493
80  401  287
81  324  459
82  404  373
83  341  344
84  216  141
85  405  262
86  481  271
87  466  173
88   31  392
89   37  416
90  418   66
91  136  360
92  210  125
93  169  397
94  458  307
95  158  419
96  269  379
97  108  465
98  403   54
99  266    5
100  103   31
101   94  480
102  441  344
103  223  280
104  182   34
105  427  198
106   55  437
107  353  214
108  495  293
109  323  147
110   35   75
111    1  228
112  105   36
113  101   19
114  396  321
115   87  173
116  186  198
117  486  294
118  335  184
119   89  193
120   30   90
121  308  193
122  132  172
123  191   94
124  177  264
125  253  395
126  200  279
127  282  120
128  167    8
129  155  240
130   46   60
131  435   70
132  112  458
133  111  393
134  456  173
135  347   14
136  207   72
137   68  138
138   49   13
139   66  432
140  201  423
141  335  138
142  405   82
143  494  103
144  307  150
145  114  213
146  338  488
147  359  339
148  275  496
149  226  313
150  415  140
151   82  388
152   89  325
153  123  348
154  372  381
155   43  317
156  175  137
157  205  451
158   39   94
159   45  190
160  195  331
161  430  370
162  343  229
163   90  280
164  461  247
165  196  285
166  144  473
167  293   80
168  447  212
169  461  488
170   27  373
171  370  491
172  183  295
173  454  491
174  460  365
175  142   48
176  205  141
177   11  339
178  301  235
179  241   81
180  203  400
181  223  274
182  279  120
183  129  161
184   67  466
185  178   34
186  105   27
187  442  356
188  473  500
189   52  146
190  467  241
191   25    0
192  146  456
193  141  479
194  308  134
195  143   86
196  197   10
197  273  208
198  161  321
199  305   91
200  242  302
DEMAND_SECTION
1 -3
2 -6
3 -1
4 5
5 0
6 -1
7 -7
8 0
9 2
10 1
11 -7
12 8
13 2
14 -10
15 0
16 6
17 5
18 -6
19 7
20 -2
21 7
22 -10
23 -10
24 3
25 3
26 -7
27 -7
28 7
29 -6
30 -7
31 3
32 -4
33 8
34 -2
35 5
36 6
37 -3
38 1
39 10
40 -2
41 -4
42 4
43 3
44 -8
45 -5
46 7
47 8
48 3
49 -5
50 0
51 -5
52 -9
53 0
54 -8
55 4
56 10
57 -8
58 -5
59 2
60 6
61 -6
62 -8
63 6
64 5
65 -4
66 7
67 0
68 2
69 -4
70 -6
71 -7
72 9
73 6
74 -9
75 2
76 -4
77 -10
78 7
79 -4
80 6
81 -2
82 -4
83 -4
84 -2
85 7
86 -5
87 -5
88 -9
89 5
90 8
91 -9
92 -5
93 4
94 -2
95 0
96 9
97 9
98 -2
99 7
100 8
101 8
102 -8
103 -6
104 -10
105 6
106 4
107 -2
108 1
109 2
110 -6
111 0
112 -3
113 1
114 9
115 -1
116 2
117 1
118 -8
119 3
120 -5
121 -1
122 -1
123 -9
124 -10
125 7
126 -1
127 8
128 8
129 -1
130 0
131 8
132 0
133 0
134 3
135 4
136 -9
137 0
138 0
139 6
140 5
141 10
142 -7
143 -8
144 3
145 -10
146 1
147 9
148 -5
149 -10
150 -1
151 -6
152 5
153 8
154 -7
155 -4
156 0
157 6
158 -2
159 0
160 5
161 1
162 6
163 6
164 9
165 -9
166 8
167 9
168 9
169 -4
170 -2
171 2
172 -1
173 7
174 -1
175 -2
176 0
177 1
178 -4
179 -4
180 -6
181 -6
182 9
183 5
184 9
185 -2
186 -9
187 4
188 7
189 -3
190 -4
191 6
192 -8
193 -1
194 -9
195 4
196 4
197 -4
198 4
199 -4
200 7
EOF